Fe6 C2
1.0
   2.3309673358637681   -4.0373538564995135    0.0000000000000000
   2.3309673358637681    4.0373538564995135    0.0000000000000000
   0.0000000000000000    0.0000000000000000    4.3182662700007137
Fe C
6 2
direct
   0.0000000000000000    0.6838252499999997    0.5000000000000000 Fe
   0.0000000000000000    0.3161747500000003    0.0000000000000000 Fe
   0.6838252499999997    0.6838252499999997    0.0000000000000000 Fe
   0.6838252499999997    0.0000000000000000    0.5000000000000000 Fe
   0.3161747500000003    0.3161747500000003    0.5000000000000000 Fe
   0.3161747500000003    0.0000000000000000    0.0000000000000000 Fe
   0.6666666666666666    0.3333333333333333    0.7500000000000000 C
   0.3333333333333333    0.6666666666666666    0.2500000000000000 C
